10
0 86 98 90 20 90 86 58 77 20 
24 0 54 9 48 76 34 45 16 39 
77 33 0 82 4 44 76 93 60 10 
8 67 32 0 63 10 92 52 46 35 
58 49 55 24 0 1 63 46 91 10 
40 38 78 88 64 0 9 55 28 69 
28 89 56 10 49 99 0 55 55 27 
58 68 87 98 59 41 90 0 56 45 
25 43 7 28 15 72 68 51 0 49 
73 68 55 65 83 81 80 91 10 0 
